* ENCODING=ISO-8859-1
NAME          CPLEX
ROWS
 N  obj1    
 G  c1      
 G  c2      
 G  c3      
 G  c4      
 G  c5      
 G  c6      
 G  c7      
 G  c8      
 G  c9      
 G  c10     
 G  c11     
 G  c12     
 G  c13     
 G  c14     
 G  c15     
 G  c16     
 G  c17     
 G  c18     
 G  c19     
 G  c20     
 G  c21     
 G  c22     
 G  c23     
 G  c24     
 G  c25     
 G  c26     
 G  c27     
 G  c28     
 G  c29     
 G  c30     
 G  c31     
 G  c32     
 G  c33     
 G  c34     
 G  c35     
 G  c36     
 G  c37     
 G  c38     
 G  c39     
 G  c40     
 G  c41     
 G  c42     
 G  c43     
 G  c44     
 G  c45     
 G  c46     
 G  c47     
 G  c48     
 G  c49     
 G  c50     
 G  c51     
 G  c52     
 G  c53     
 G  c54     
 G  c55     
 G  c56     
 G  c57     
 G  c58     
 G  c59     
 G  c60     
COLUMNS
    MARK0000  'MARKER'                 'INTORG'
    x1        obj1                            1
    x1        c1                            642
    x1        c4                            686
    x1        c7                            583
    x1        c11                           695
    x1        c14                           534
    x1        c19                           926
    x1        c22                           297
    x1        c27                           877
    x1        c28                           231
    x1        c41                           240
    x1        c46                           131
    x1        c52                           208
    x1        c57                           528
    x1        c58                           968
    x2        obj1                            1
    x2        c10                           142
    x2        c12                           518
    x2        c25                           941
    x2        c48                           250
    x2        c51                           917
    x3        obj1                            1
    x3        c4                            107
    x3        c5                            121
    x3        c12                           838
    x3        c35                           656
    x3        c38                           287
    x4        obj1                            1
    x4        c3                            242
    x4        c4                            391
    x4        c6                            968
    x4        c13                           578
    x4        c31                           818
    x5        obj1                            1
    x5        c24                           404
    x5        c37                           172
    x6        obj1                            1
    x6        c48                           701
    x6        c53                           655
    x7        obj1                            1
    x7        c7                            959
    x7        c13                           720
    x7        c23                           945
    x7        c27                           342
    x7        c33                           337
    x8        obj1                            1
    x8        c24                           869
    x8        c28                           578
    x8        c34                           750
    x9        obj1                            1
    x9        c3                            235
    x9        c14                           665
    x9        c16                           515
    x9        c28                           111
    x9        c36                           907
    x9        c38                           253
    x9        c47                           926
    x9        c48                           701
    x9        c55                           535
    x9        c59                           358
    x10       obj1                            1
    x10       c3                            574
    x10       c9                            155
    x10       c18                           286
    x10       c28                           543
    x10       c46                           971
    x10       c50                           480
    x10       c56                           887
    x10       c59                           583
    x11       obj1                            1
    x11       c7                            150
    x11       c22                           841
    x12       obj1                            1
    x12       c7                            193
    x12       c32                           756
    x12       c51                           586
    x13       obj1                            1
    x13       c14                           635
    x13       c16                           246
    x13       c17                           992
    x13       c26                           582
    x13       c41                           565
    x13       c47                           692
    x13       c56                           885
    x13       c57                           113
    x14       obj1                            1
    x14       c1                            124
    x14       c7                            475
    x14       c11                           770
    x14       c22                           602
    x14       c26                           539
    x14       c30                           733
    x14       c35                           918
    x14       c48                           979
    x15       obj1                            1
    x15       c5                            370
    x15       c10                           135
    x15       c14                           635
    x15       c15                           668
    x15       c20                           881
    x15       c22                           307
    x15       c24                           478
    x15       c33                           561
    x15       c40                           829
    x15       c51                           106
    x15       c58                           107
    x16       obj1                            1
    x16       c1                            279
    x16       c59                           131
    x17       obj1                            1
    x17       c23                           325
    x17       c24                           682
    x17       c32                           891
    x17       c33                           518
    x17       c41                           430
    x17       c55                           791
    x17       c57                           487
    x18       obj1                            1
    x18       c20                           792
    x18       c29                           990
    x18       c32                           331
    x18       c42                           434
    x18       c44                           290
    x19       obj1                            1
    x19       c23                           858
    x19       c25                           951
    x19       c31                           541
    x19       c34                           818
    x19       c36                           421
    x19       c42                           802
    x20       obj1                            1
    x20       c16                           572
    x20       c18                           602
    x20       c20                           372
    x20       c32                           943
    x20       c40                           897
    x21       obj1                            1
    x21       c8                            214
    x21       c11                           786
    x21       c26                           679
    x21       c30                           348
    x21       c51                           141
    x21       c52                           549
    x22       obj1                            1
    x22       c2                            990
    x22       c10                           845
    x22       c15                           606
    x22       c23                           753
    x22       c30                           304
    x22       c33                           548
    x22       c46                           895
    x22       c48                           604
    x22       c52                           241
    x23       obj1                            1
    x23       c4                            198
    x23       c17                           895
    x23       c20                           297
    x23       c25                           294
    x24       obj1                            1
    x24       c1                            388
    x24       c11                           423
    x24       c18                           851
    x24       c32                           584
    x24       c37                           372
    x24       c38                           289
    x24       c50                           337
    x24       c51                           968
    x24       c55                           435
    x25       obj1                            1
    x25       c7                            966
    x25       c15                           656
    x25       c16                           229
    x25       c22                           722
    x25       c30                           418
    x25       c48                           509
    x26       obj1                            1
    x26       c13                           716
    x26       c15                           407
    x26       c19                           452
    x26       c29                           191
    x26       c59                           553
    x27       obj1                            1
    x27       c4                            815
    x27       c14                           543
    x27       c51                           101
    x27       c54                           882
    x27       c57                           895
    x28       obj1                            1
    x28       c16                           150
    x28       c18                           649
    x28       c19                           674
    x28       c24                           394
    x28       c35                           900
    x28       c42                           224
    x28       c49                           957
    x28       c51                           537
    x29       obj1                            1
    x29       c6                            943
    x29       c19                           349
    x29       c28                           710
    x29       c49                           595
    x29       c53                           652
    x30       obj1                            1
    x30       c2                            159
    x30       c4                            569
    x30       c27                           298
    x30       c28                           169
    x30       c41                           797
    x30       c50                           786
    x30       c59                           605
    x31       obj1                            1
    x31       c3                            974
    x31       c14                           574
    x31       c18                           567
    x31       c21                           949
    x31       c28                           273
    x31       c33                           379
    x31       c36                           136
    x31       c39                           766
    x32       obj1                            1
    x32       c20                           322
    x32       c25                           830
    x32       c27                           714
    x32       c56                           102
    x32       c60                           485
    x33       obj1                            1
    x33       c21                           812
    x33       c33                           562
    x33       c38                           966
    x33       c40                           851
    x34       obj1                            1
    x34       c1                            695
    x34       c8                            509
    x34       c10                           593
    x34       c18                           406
    x34       c20                           612
    x34       c26                           589
    x34       c46                           234
    x34       c48                           538
    x34       c53                           536
    x34       c56                           301
    x34       c58                           603
    x35       obj1                            1
    x35       c19                           140
    x35       c44                           751
    x35       c45                           195
    x35       c54                           963
    x35       c58                           744
    x35       c59                           575
    x36       obj1                            1
    x36       c1                            980
    x36       c5                            345
    x36       c17                           102
    x36       c20                           489
    x36       c24                           186
    x36       c27                           117
    x36       c39                           178
    x36       c42                           266
    x36       c46                           795
    x36       c57                           543
    x37       obj1                            1
    x37       c2                            853
    x37       c4                            302
    x37       c5                            182
    x37       c29                           669
    x37       c56                           283
    x38       obj1                            1
    x38       c11                           529
    x38       c15                           142
    x38       c26                           252
    x38       c29                           603
    x38       c34                           688
    x38       c42                           738
    x39       obj1                            1
    x39       c1                            497
    x39       c4                            708
    x39       c8                            723
    x39       c12                           924
    x40       obj1                            1
    x40       c27                           114
    x40       c31                           284
    x40       c39                           626
    x40       c40                           776
    x40       c53                           326
    x40       c57                           135
    x41       obj1                            1
    x41       c16                           878
    x41       c17                           375
    x41       c20                           638
    x41       c28                           365
    x42       obj1                            1
    x42       c17                           621
    x42       c19                           636
    x42       c22                           109
    x42       c40                           514
    x42       c45                           202
    x43       obj1                            1
    x43       c16                           798
    x43       c30                           601
    x43       c40                           335
    x43       c41                           944
    x43       c45                           680
    x43       c46                           695
    x43       c58                           541
    x44       obj1                            1
    x44       c2                            606
    x44       c6                            646
    x44       c12                           102
    x44       c29                           977
    x44       c30                           458
    x44       c31                           698
    x44       c35                           509
    x44       c37                           606
    x44       c42                           977
    x44       c48                           207
    x44       c56                           684
    x45       obj1                            1
    x45       c10                           198
    x45       c15                           238
    x45       c26                           783
    x45       c29                           148
    x45       c43                           859
    x45       c59                           300
    x45       c60                           120
    x46       obj1                            1
    x46       c5                            407
    x46       c9                            317
    x46       c24                           868
    x46       c29                           525
    x46       c32                           548
    x46       c33                           849
    x46       c40                           107
    x46       c47                           829
    x46       c49                           311
    x47       obj1                            1
    x47       c32                           154
    x47       c48                           775
    x47       c50                           725
    x47       c60                           297
    x48       obj1                            1
    x48       c46                           632
    x48       c60                           674
    x49       obj1                            1
    x49       c15                           762
    x49       c21                           312
    x49       c22                           576
    x49       c25                           345
    x49       c32                           780
    x49       c39                           574
    x49       c50                           153
    x49       c54                           748
    x50       obj1                            1
    x50       c38                           803
    x50       c43                           680
    x51       obj1                            1
    x51       c2                            230
    x51       c34                           862
    x51       c38                           832
    x51       c52                           756
    x52       obj1                            1
    x52       c1                            847
    x52       c9                            156
    x52       c11                           819
    x52       c16                           296
    x52       c21                           361
    x52       c27                           778
    x52       c31                           214
    x52       c37                           835
    x52       c39                           169
    x52       c41                           635
    x52       c53                           899
    x53       obj1                            1
    x53       c2                            988
    x53       c6                            881
    x53       c12                           916
    x53       c33                           183
    x53       c41                           111
    x53       c46                           845
    x53       c50                           877
    x53       c54                           905
    x53       c58                           365
    x53       c60                           814
    x54       obj1                            1
    x54       c4                            326
    x54       c10                           996
    x54       c25                           715
    x54       c35                           458
    x54       c45                           119
    x54       c47                           914
    x54       c51                           664
    x55       obj1                            1
    x55       c24                           758
    x55       c27                           926
    x55       c28                           397
    x55       c41                           701
    x55       c44                           619
    x56       obj1                            1
    x56       c25                           387
    x56       c32                           745
    x56       c40                           357
    x56       c50                           808
    x57       obj1                            1
    x57       c3                            611
    x57       c6                            951
    x57       c10                           196
    x57       c23                           385
    x57       c25                           407
    x57       c26                           252
    x57       c54                           671
    x58       obj1                            1
    x58       c6                            440
    x58       c9                            244
    x58       c11                           845
    x58       c20                           262
    x58       c30                           120
    x58       c37                           576
    x58       c38                           930
    x58       c42                           566
    x58       c52                           514
    x58       c54                           412
    x58       c56                           669
    x58       c58                           731
    x58       c60                           670
    x59       obj1                            1
    x59       c42                           513
    x59       c53                           491
    x60       obj1                            1
    x60       c1                            382
    x60       c27                           997
    x60       c43                           778
    x60       c53                           521
    MARK0001  'MARKER'                 'INTEND'
RHS
    rhs       c1                           2417
    rhs       c2                           1913
    rhs       c3                           1318
    rhs       c4                           2051
    rhs       c5                            713
    rhs       c6                           2415
    rhs       c7                           1663
    rhs       c8                            723
    rhs       c9                            436
    rhs       c10                          1553
    rhs       c11                          2434
    rhs       c12                          1649
    rhs       c13                          1007
    rhs       c14                          1793
    rhs       c15                          1740
    rhs       c16                          1842
    rhs       c17                          1493
    rhs       c18                          1681
    rhs       c19                          1589
    rhs       c20                          2333
    rhs       c21                          1217
    rhs       c22                          1727
    rhs       c23                          1633
    rhs       c24                          2320
    rhs       c25                          2435
    rhs       c26                          1838
    rhs       c27                          2582
    rhs       c28                          1689
    rhs       c29                          2052
    rhs       c30                          1491
    rhs       c31                          1278
    rhs       c32                          2866
    rhs       c33                          1969
    rhs       c34                          1559
    rhs       c35                          1721
    rhs       c36                           732
    rhs       c37                          1281
    rhs       c38                          2180
    rhs       c39                          1157
    rhs       c40                          2333
    rhs       c41                          2212
    rhs       c42                          2260
    rhs       c43                          1159
    rhs       c44                           830
    rhs       c45                           598
    rhs       c46                          2599
    rhs       c47                          1681
    rhs       c48                          2632
    rhs       c49                           932
    rhs       c50                          2083
    rhs       c51                          2010
    rhs       c52                          1134
    rhs       c53                          2040
    rhs       c54                          2291
    rhs       c55                           881
    rhs       c56                          1906
    rhs       c57                          1351
    rhs       c58                          2030
    rhs       c59                          1553
    rhs       c60                          1530
BOUNDS
 LI bnd       x1        0
 LI bnd       x2        0
 LI bnd       x3        0
 LI bnd       x4        0
 LI bnd       x5        0
 LI bnd       x6        0
 LI bnd       x7        0
 LI bnd       x8        0
 LI bnd       x9        0
 LI bnd       x10       0
 LI bnd       x11       0
 LI bnd       x12       0
 LI bnd       x13       0
 LI bnd       x14       0
 LI bnd       x15       0
 LI bnd       x16       0
 LI bnd       x17       0
 LI bnd       x18       0
 LI bnd       x19       0
 LI bnd       x20       0
 LI bnd       x21       0
 LI bnd       x22       0
 LI bnd       x23       0
 LI bnd       x24       0
 LI bnd       x25       0
 LI bnd       x26       0
 LI bnd       x27       0
 LI bnd       x28       0
 LI bnd       x29       0
 LI bnd       x30       0
 LI bnd       x31       0
 LI bnd       x32       0
 LI bnd       x33       0
 LI bnd       x34       0
 LI bnd       x35       0
 LI bnd       x36       0
 LI bnd       x37       0
 LI bnd       x38       0
 LI bnd       x39       0
 LI bnd       x40       0
 LI bnd       x41       0
 LI bnd       x42       0
 LI bnd       x43       0
 LI bnd       x44       0
 LI bnd       x45       0
 LI bnd       x46       0
 LI bnd       x47       0
 LI bnd       x48       0
 LI bnd       x49       0
 LI bnd       x50       0
 LI bnd       x51       0
 LI bnd       x52       0
 LI bnd       x53       0
 LI bnd       x54       0
 LI bnd       x55       0
 LI bnd       x56       0
 LI bnd       x57       0
 LI bnd       x58       0
 LI bnd       x59       0
 LI bnd       x60       0
ENDATA
